Route #1: 1 3 35 49 41 45 7 32 31 21 28 13 1
Route #2: 1 8 10 34 38 50 44 37 12 25 1
Route #3: 1 16 43 9 18 22 11 1
Route #4: 1 26 17 48 27 5 19 1
Route #5: 1 15 24 39 23 47 14 4 1
Route #6: 1 6 33 1
Route #7: 1 20 30 29 2 40 1
Route #8: 1 42 46 36 1
cost 1406
